24 = ndim
6 = nblocks
6 6 6 6 6 6 = blockstruct
0.0, 0.0, 0.0, 0.0, 0.0, 0.0, 0.0, 0.0, 0.0, 0.0, 0.0, 0.0, 0.0, 0.0, 0.0, 0.0, 0.0, 0.0, 0.0, 0.0, 0.0, 0.0, 0.0, 0.0 = objcoeffs
0 1 3 3 -0.14032911015197655
0 2 1 1 -0.6492183365898837
0 2 1 2 -0.1261549454586477
0 2 1 3 0.010197704491046872
0 2 1 6 -1.0154987241281552
0 2 2 3 -0.007697914723004913
0 2 2 6 -1.6309926789125007
0 2 3 3 -1.13541261438234
0 2 3 4 1.0154987241281552
0 2 3 5 1.6309926789125007
0 3 1 1 0.5275755566850754
0 3 1 2 0.06699348802968422
0 3 1 3 -0.0110732542891913
0 3 1 6 0.007143568958309865
0 3 2 3 0.013937168528910693
0 3 2 6 -2.491605546905856
0 3 3 3 -0.5099320133935018
0 3 3 4 -0.007143568958309865
0 3 3 5 2.491605546905856
0 4 1 1 0.1650967030863374
0 4 1 2 -0.01695842730840625
0 4 1 3 0.016440648684196243
0 4 1 6 -0.013789412675967151
0 4 2 3 9.555670214733691e-05
0 4 2 6 -1.0926603819029896
0 4 3 3 -0.22636183189468084
0 4 3 4 0.013789412675967151
0 4 3 5 1.0926603819029896
0 5 1 1 -0.023944422537353863
0 5 1 2 -0.002336023319242597
0 5 1 3 0.0011681900948707158
0 5 1 6 -0.07463778352187142
0 5 2 3 -0.0037826199074007076
0 5 2 6 0.00017007002932905614
0 5 3 3 -0.007717149306471188
0 5 3 4 0.07463778352187142
0 5 3 5 -0.00017007002932905614
0 6 1 1 0.002197135370272758
0 6 1 2 -6.173481015838203e-05
0 6 1 3 -0.00326501329201264
0 6 1 6 0.0003695757457952577
0 6 2 3 -0.0023074344759146095
0 6 2 6 0.09554939711489374
0 6 3 3 -0.013114882474582713
0 6 3 4 -0.0003695757457952577
0 6 3 5 -0.09554939711489374
1 1 1 1 1.0
2 1 1 2 1.0
3 1 1 3 1.0
4 1 2 2 1.0
5 1 2 3 1.0
6 1 2 6 1.0
6 1 3 5 -1.0
7 1 1 6 -1.0
7 1 3 4 1.0
8 1 1 5 1.0
8 1 2 4 -1.0
9 1 4 4 1.0
9 1 5 5 1.0
9 1 6 6 1.0
10 1 3 3 -1.0
10 2 1 1 1.0
10 2 2 2 1.0
11 1 3 3 0.04992
11 2 1 5 1.0
11 2 2 4 -1.0
12 1 3 3 -0.0006230016
12 2 4 4 1.0
12 2 5 5 1.0
12 2 6 6 1.0
13 2 1 1 -1.0
13 2 3 3 -1.0
13 3 1 1 1.0
13 3 2 2 1.0
14 2 1 1 -0.15326
14 2 1 2 -0.12511
14 2 1 6 -1.0
14 2 3 3 -0.15326
14 2 3 4 1.0
14 3 1 5 1.0
14 3 2 4 -1.0
15 1 3 3 -0.0162755137
15 2 1 1 0.0097803552
15 2 1 2 -0.0095871793
15 2 1 6 -0.07663
15 2 2 6 -0.12511
15 2 3 3 -0.021524669
15 2 3 4 0.07663
15 2 3 5 0.12511
15 3 4 4 1.0
15 3 5 5 1.0
15 3 6 6 1.0
16 2 1 1 -1.0
16 2 3 3 -1.0
16 4 1 1 1.0
16 4 2 2 1.0
17 2 1 1 0.15326
17 2 1 2 0.12511
17 2 1 6 1.0
17 2 3 3 0.15326
17 2 3 4 -1.0
17 3 1 3 -0.29989
17 4 1 5 1.0
17 4 2 4 -1.0
18 1 3 3 -0.0162755137
18 2 1 1 -0.0801536569
18 2 1 2 -0.0095871793
18 2 1 6 -0.07663
18 2 2 6 -0.12511
18 2 3 3 -0.1114586811
18 2 3 4 0.07663
18 2 3 5 0.12511
18 3 1 1 0.0899340121
18 3 2 6 -0.29989
18 3 3 3 -0.0899340121
18 3 3 5 0.29989
18 4 4 4 1.0
18 4 5 5 1.0
18 4 6 6 1.0
19 2 1 1 -1.0
19 2 3 3 -1.0
19 5 1 1 1.0
19 5 2 2 1.0
20 2 1 1 0.15326
20 2 1 2 0.12511
20 2 1 6 1.0
20 2 3 3 0.15326
20 2 3 4 -1.0
20 3 1 3 -0.29989
20 4 1 3 0.29989
20 5 1 5 1.0
20 5 2 4 -1.0
21 1 3 3 -0.0162755137
21 2 1 1 -0.170087669
21 2 1 2 -0.0095871793
21 2 1 6 -0.07663
21 2 2 6 -0.12511
21 2 3 3 -0.2013926932
21 2 3 4 0.07663
21 2 3 5 0.12511
21 3 1 1 0.0899340121
21 3 2 6 -0.29989
21 3 3 3 -0.0899340121
21 3 3 5 0.29989
21 4 1 1 0.0899340121
21 4 2 6 -0.29989
21 4 3 3 -0.0899340121
21 4 3 5 0.29989
21 5 4 4 1.0
21 5 5 5 1.0
21 5 6 6 1.0
22 5 1 1 -1.0
22 5 3 3 -1.0
22 6 1 1 1.0
22 6 2 2 1.0
23 5 1 6 -1.0
23 5 3 4 1.0
23 6 1 5 1.0
23 6 2 4 -1.0
24 1 3 3 -0.0162755137
24 2 1 1 -0.170087669
24 2 1 2 -0.0095871793
24 2 1 6 -0.07663
24 2 2 6 -0.12511
24 2 3 3 -0.2013926932
24 2 3 4 0.07663
24 2 3 5 0.12511
24 3 1 1 0.0899340121
24 3 2 6 -0.29989
24 3 3 3 -0.0899340121
24 3 3 5 0.29989
24 4 1 1 0.0899340121
24 4 2 6 -0.29989
24 4 3 3 -0.0899340121
24 4 3 5 0.29989
24 6 4 4 1.0
24 6 5 5 1.0
24 6 6 6 1.0
